h -1 -2 -3 0
h -4 -5 0
h 6 -2 4 0
68416055126301209 -6 0
38033743549413654 -7 0
h 1 8 0
h 3 8 0
1 -8 0
h -1 -4 0
132009471879979605 -9 0
h 3 10 5 0
h 10 2 0
71115062443127489 -10 0
h 1 11 0
1 -11 0
h 12 3 1 0
h -1 12 -3 0
1 -12 0
h 13 -5 0
1 -13 0
h 14 -2 -3 0
131856431606190884 -14 0
h 2 -1 15 0
38565776793442779 -15 0
